objective value:                                  -79
t_x10                                               1 	(obj:-100)
t_y10_26                                            1 	(obj:1)
t_y10_175                                           1 	(obj:1)
t_y10_414                                           1 	(obj:1)
t_y10_74                                            1 	(obj:1)
t_y10_87                                            1 	(obj:1)
t_y10_84                                            1 	(obj:1)
t_y10_300                                           1 	(obj:1)
t_y10_386                                           1 	(obj:1)
t_y10_274                                           1 	(obj:1)
t_y10_423                                           1 	(obj:1)
t_y10_287                                           1 	(obj:1)
t_y10_376                                           1 	(obj:1)
t_y10_43                                            1 	(obj:1)
t_y10_237                                           1 	(obj:1)
t_y10_70                                            1 	(obj:1)
t_y10_163                                           1 	(obj:1)
t_y10_140                                           1 	(obj:1)
t_y10_355                                           1 	(obj:1)
t_y10_69                                            1 	(obj:1)
t_y10_352                                           1 	(obj:1)
t_y10_66                                            1 	(obj:1)
